
Gurobi 9.5.1 (linux64) logging started Fri Apr  8 21:29:06 2022

Set parameter LogFile to value "logs/CRVRP_5-4-11-100_4_0.LOG"
Set parameter Seed to value 199572
Set parameter Threads to value 2
Set parameter TimeLimit to value 60
Set parameter Symmetry to value 2
Set parameter Cuts to value 2
Set parameter PreDepRow to value 1
Set parameter ScaleFlag to value 1
Set parameter NormAdjust to value 0
Gurobi Optimizer version 9.5.1 build v9.5.1rc2 (linux64)
Thread count: 4 physical cores, 8 logical processors, using up to 2 threads
Optimize a model with 1007 rows, 810 columns and 4018 nonzeros
Model fingerprint: 0x2bcd2d41
Variable types: 32 continuous, 778 integer (522 binary)
Coefficient statistics:
  Matrix range     [9e-01, 1e+06]
  Objective range  [1e+00, 1e+00]
  Bounds range     [1e+00, 1e+04]
  RHS range        [1e+00, 1e+06]
Presolve removed 620 rows and 515 columns
Presolve time: 0.02s
Presolved: 387 rows, 295 columns, 2073 nonzeros
Variable types: 15 continuous, 280 integer (230 binary)
Found heuristic solution: objective 726.0254857

Root relaxation: objective 3.281544e+02, 209 iterations, 0.00 seconds (0.00 work units)

    Nodes    |    Current Node    |     Objective Bounds      |     Work
 Expl Unexpl |  Obj  Depth IntInf | Incumbent    BestBd   Gap | It/Node Time

     0     0  328.15442    0   28  726.02549  328.15442  54.8%     -    0s
H    0     0                     473.9663032  328.15442  30.8%     -    0s
     0     0  328.15442    0   28  473.96630  328.15442  30.8%     -    0s
H    0     0                     468.4693595  328.15442  30.0%     -    0s
     0     0  328.15442    0   26  468.46936  328.15442  30.0%     -    0s
     0     0  328.15442    0   30  468.46936  328.15442  30.0%     -    0s
     0     0  328.58966    0   34  468.46936  328.58966  29.9%     -    0s
     0     0  337.54547    0   29  468.46936  337.54547  27.9%     -    0s
H    0     0                     438.6935595  337.54547  23.1%     -    0s
     0     0  337.85503    0   17  438.69356  337.85503  23.0%     -    0s
     0     0  337.85503    0   29  438.69356  337.85503  23.0%     -    0s
     0     0  337.85503    0   31  438.69356  337.85503  23.0%     -    0s
H    0     0                     411.1698807  337.85503  17.8%     -    0s
     0     0  337.85503    0   26  411.16988  337.85503  17.8%     -    0s
     0     0  337.85503    0   35  411.16988  337.85503  17.8%     -    0s
H    0     0                     402.3070305  337.85503  16.0%     -    0s
     0     0  337.85503    0   26  402.30703  337.85503  16.0%     -    0s
     0     0  337.85503    0   26  402.30703  337.85503  16.0%     -    0s
     0     0  337.85503    0   25  402.30703  337.85503  16.0%     -    0s
     0     0  338.09160    0   28  402.30703  338.09160  16.0%     -    0s
     0     0  338.52141    0   48  402.30703  338.52141  15.9%     -    0s
     0     0  338.52141    0   50  402.30703  338.52141  15.9%     -    0s
     0     0  338.53760    0   48  402.30703  338.53760  15.9%     -    0s
     0     0  338.53760    0   16  402.30703  338.53760  15.9%     -    0s
H    0     0                     384.7257904  338.53760  12.0%     -    0s
     0     0  340.47069    0   27  384.72579  340.47069  11.5%     -    0s
     0     0  340.54569    0   28  384.72579  340.54569  11.5%     -    0s
     0     0  344.93035    0   27  384.72579  344.93035  10.3%     -    0s
     0     0  344.97991    0   27  384.72579  344.97991  10.3%     -    0s
     0     0  344.97991    0   30  384.72579  344.97991  10.3%     -    0s
     0     0  384.07716    0   17  384.72579  384.07716  0.17%     -    0s
     0     0     cutoff    0       384.72579  384.72579  0.00%     -    0s

Cutting planes:
  Gomory: 1
  Cover: 11
  Implied bound: 8
  Clique: 7
  MIR: 4
  StrongCG: 1
  Flow cover: 6
  GUB cover: 3
  Relax-and-lift: 1

Explored 1 nodes (2065 simplex iterations) in 0.44 seconds (0.18 work units)
Thread count was 2 (of 8 available processors)

Solution count 7: 384.726 402.307 411.17 ... 726.025

Optimal solution found (tolerance 1.00e-04)
Best objective 3.847257903674e+02, best bound 3.847257903674e+02, gap 0.0000%
Discarded solution information

Gurobi 9.5.1 (linux64) logging started Sat Apr  9 13:41:21 2022

Set parameter LogFile to value "logs/CRVRP_5-4-11-100_4_0.LOG"
Set parameter Seed to value 951937518
Set parameter Threads to value 2
Set parameter TimeLimit to value 60
Set parameter Symmetry to value 2
Set parameter Cuts to value 2
Set parameter PreDepRow to value 1
Set parameter ScaleFlag to value 1
Set parameter NormAdjust to value 0
Gurobi Optimizer version 9.5.1 build v9.5.1rc2 (linux64)
Thread count: 4 physical cores, 8 logical processors, using up to 2 threads
Optimize a model with 1007 rows, 810 columns and 4018 nonzeros
Model fingerprint: 0x2bcd2d41
Variable types: 32 continuous, 778 integer (522 binary)
Coefficient statistics:
  Matrix range     [9e-01, 1e+06]
  Objective range  [1e+00, 1e+00]
  Bounds range     [1e+00, 1e+04]
  RHS range        [1e+00, 1e+06]
Presolve removed 620 rows and 515 columns
Presolve time: 0.02s
Presolved: 387 rows, 295 columns, 2073 nonzeros
Variable types: 15 continuous, 280 integer (230 binary)
Found heuristic solution: objective 726.0254857

Root relaxation: objective 3.281544e+02, 234 iterations, 0.00 seconds (0.00 work units)

    Nodes    |    Current Node    |     Objective Bounds      |     Work
 Expl Unexpl |  Obj  Depth IntInf | Incumbent    BestBd   Gap | It/Node Time

     0     0  328.15442    0   11  726.02549  328.15442  54.8%     -    0s
H    0     0                     521.9920936  328.15442  37.1%     -    0s
H    0     0                     496.5713677  328.15442  33.9%     -    0s
     0     0  328.15442    0   42  496.57137  328.15442  33.9%     -    0s
H    0     0                     483.9663032  328.15442  32.2%     -    0s
     0     0  328.15442    0   36  483.96630  328.15442  32.2%     -    0s
     0     0  328.15442    0   37  483.96630  328.15442  32.2%     -    0s
     0     0  328.86818    0   45  483.96630  328.86818  32.0%     -    0s
     0     0  335.79276    0   42  483.96630  335.79276  30.6%     -    0s
H    0     0                     449.1777870  335.79276  25.2%     -    0s
H    0     0                     411.1698807  335.79276  18.3%     -    0s
     0     0  337.85503    0   33  411.16988  337.85503  17.8%     -    0s
     0     0  337.85503    0   33  411.16988  337.85503  17.8%     -    0s
     0     0  337.85503    0   17  411.16988  337.85503  17.8%     -    0s
     0     0  337.85503    0   26  411.16988  337.85503  17.8%     -    0s
     0     0  337.85503    0   22  411.16988  337.85503  17.8%     -    0s
     0     0  337.85503    0   28  411.16988  337.85503  17.8%     -    0s
     0     0  337.88572    0   51  411.16988  337.88572  17.8%     -    0s
     0     0  337.95323    0   51  411.16988  337.95323  17.8%     -    0s
     0     0  337.95738    0   51  411.16988  337.95738  17.8%     -    0s
     0     0  337.96606    0   52  411.16988  337.96606  17.8%     -    0s
     0     0  337.96620    0   54  411.16988  337.96620  17.8%     -    0s
     0     0  338.55950    0   59  411.16988  338.55950  17.7%     -    0s
     0     0  338.55950    0    8  411.16988  338.55950  17.7%     -    0s
     0     0  338.55950    0   23  411.16988  338.55950  17.7%     -    0s
H    0     0                     404.0173628  338.55950  16.2%     -    0s
H    0     0                     402.3070305  338.55950  15.8%     -    0s
     0     0  338.81565    0   30  402.30703  338.81565  15.8%     -    0s
     0     0  339.05671    0   33  402.30703  339.05671  15.7%     -    0s
     0     0  340.58181    0   34  402.30703  340.58181  15.3%     -    0s
     0     0  344.13923    0   32  402.30703  344.13923  14.5%     -    0s
     0     0  344.19751    0   35  402.30703  344.19751  14.4%     -    0s
     0     0  344.22553    0   35  402.30703  344.22553  14.4%     -    0s
     0     0  345.21146    0   35  402.30703  345.21146  14.2%     -    0s
     0     0  345.24766    0   38  402.30703  345.24766  14.2%     -    0s
     0     0  345.26769    0   39  402.30703  345.26769  14.2%     -    0s
     0     0  345.26769    0   46  402.30703  345.26769  14.2%     -    0s
     0     0  345.53484    0   43  402.30703  345.53484  14.1%     -    0s
     0     0  345.61274    0   40  402.30703  345.61274  14.1%     -    0s
     0     0  345.63339    0   46  402.30703  345.63339  14.1%     -    0s
     0     0  345.63339    0   46  402.30703  345.63339  14.1%     -    0s
     0     0  345.96659    0   38  402.30703  345.96659  14.0%     -    0s
     0     0  345.97374    0   40  402.30703  345.97374  14.0%     -    0s
     0     0  346.00548    0   46  402.30703  346.00548  14.0%     -    0s
     0     0  346.17626    0   48  402.30703  346.17626  14.0%     -    0s
     0     0  346.20304    0   49  402.30703  346.20304  13.9%     -    0s
     0     0  346.20304    0   50  402.30703  346.20304  13.9%     -    0s
     0     0  346.21633    0   49  402.30703  346.21633  13.9%     -    0s
     0     0  346.21633    0   49  402.30703  346.21633  13.9%     -    0s
     0     0  346.22292    0   50  402.30703  346.22292  13.9%     -    0s
     0     0  346.22292    0   45  402.30703  346.22292  13.9%     -    0s
H    0     0                     388.5634613  346.22292  10.9%     -    0s
     0     1  347.40631    0   39  388.56346  347.40631  10.6%     -    0s
H    4     2                     384.7257904  350.82079  8.81%  11.0    0s

Cutting planes:
  Gomory: 5
  Lift-and-project: 7
  Cover: 1
  Clique: 1
  MIR: 11
  Flow cover: 7
  Zero half: 1

Explored 34 nodes (2787 simplex iterations) in 0.65 seconds (0.32 work units)
Thread count was 2 (of 8 available processors)

Solution count 10: 384.726 388.563 402.307 ... 726.025

Optimal solution found (tolerance 1.00e-04)
Best objective 3.847257903674e+02, best bound 3.847257903674e+02, gap 0.0000%
Discarded solution information
